NAME: random-62-15136
TYPE: TSP
COMMENT: size=62 seed=15136
DIMENSION: 126
EDGE_WEIGHT_TYPE: EUC_2D
NODE_COORD_SECTION
+0 752 334
-0 752 334
+1 719 834
-1 320 483
+2 721 315
-2 652 373
+3 593 331
-3 809 409
+4 246 92
-4 699 115
+5 815 66
-5 66 651
+6 31 63
-6 487 449
+7 464 949
-7 826 544
+8 748 766
-8 933 792
+9 119 761
-9 744 393
+10 379 855
-10 562 602
+11 893 620
-11 688 46
+12 215 117
-12 289 998
+13 382 864
-13 109 200
+14 3 514
-14 713 156
+15 468 84
-15 6 548
+16 285 36
-16 756 157
+17 793 836
-17 562 758
+18 489 111
-18 994 941
+19 994 470
-19 478 905
+20 377 425
-20 264 396
+21 85 904
-21 759 531
+22 167 25
-22 305 236
+23 816 56
-23 563 788
+24 37 993
-24 396 895
+25 732 938
-25 947 355
+26 710 844
-26 257 492
+27 401 976
-27 204 494
+28 402 946
-28 681 513
+29 866 924
-29 49 854
+30 441 820
-30 669 398
+31 38 927
-31 556 823
+32 330 350
-32 137 397
+33 227 8
-33 479 60
+34 612 81
-34 367 230
+35 883 749
-35 569 178
+36 475 451
-36 578 494
+37 608 898
-37 311 419
+38 91 503
-38 440 300
+39 5 881
-39 457 851
+40 831 299
-40 444 548
+41 805 175
-41 535 381
+42 149 754
-42 441 549
+43 803 983
-43 259 977
+44 790 509
-44 837 315
+45 730 150
-45 124 957
+46 231 81
-46 414 581
+47 833 357
-47 533 922
+48 671 462
-48 320 212
+49 559 177
-49 441 818
+50 268 804
-50 421 294
+51 164 627
-51 78 946
+52 429 890
-52 545 643
+53 180 445
-53 453 39
+54 895 254
-54 274 664
+55 290 986
-55 556 594
+56 6 904
-56 929 35
+57 676 458
-57 10 423
+58 33 242
-58 728 126
+59 838 143
-59 882 101
+60 206 95
-60 108 593
+61 999 225
-61 2 60
+62 543 153
-62 961 357
PRECEDENCE_SECTION
+0 -0
+1 -1
+2 -2
+3 -3
+4 -4
+5 -5
+6 -6
+7 -7
+8 -8
+9 -9
+10 -10
+11 -11
+12 -12
+13 -13
+14 -14
+15 -15
+16 -16
+17 -17
+18 -18
+19 -19
+20 -20
+21 -21
+22 -22
+23 -23
+24 -24
+25 -25
+26 -26
+27 -27
+28 -28
+29 -29
+30 -30
+31 -31
+32 -32
+33 -33
+34 -34
+35 -35
+36 -36
+37 -37
+38 -38
+39 -39
+40 -40
+41 -41
+42 -42
+43 -43
+44 -44
+45 -45
+46 -46
+47 -47
+48 -48
+49 -49
+50 -50
+51 -51
+52 -52
+53 -53
+54 -54
+55 -55
+56 -56
+57 -57
+58 -58
+59 -59
+60 -60
+61 -61
+62 -62
EOF
